
Gurobi 13.0.0 (win64) logging started Mon Apr 20 18:21:04 2026


Gurobi 13.0.0 (win64) logging started Mon Apr 20 18:21:05 2026


Gurobi 13.0.0 (win64) logging started Mon Apr 20 18:25:27 2026


Gurobi 13.0.0 (win64) logging started Mon Apr 20 18:25:32 2026


Gurobi 13.0.0 (win64) logging started Mon Apr 20 19:32:00 2026


Gurobi 13.0.0 (win64) logging started Mon Apr 20 19:32:05 2026


Gurobi 13.0.0 (win64) logging started Mon Apr 20 19:35:13 2026


Gurobi 13.0.0 (win64) logging started Mon Apr 20 19:35:18 2026


Gurobi 13.0.0 (win64) logging started Mon Apr 20 19:39:06 2026


Gurobi 13.0.0 (win64) logging started Mon Apr 20 19:39:11 2026


Gurobi 13.0.0 (win64) logging started Mon Apr 20 19:46:34 2026


Gurobi 13.0.0 (win64) logging started Mon Apr 20 19:46:41 2026


Gurobi 13.0.0 (win64) logging started Mon Apr 20 19:48:51 2026


Gurobi 13.0.0 (win64) logging started Mon Apr 20 19:48:56 2026


Gurobi 13.0.0 (win64) logging started Mon Apr 20 19:51:34 2026


Gurobi 13.0.0 (win64) logging started Mon Apr 20 19:51:39 2026


Gurobi 13.0.0 (win64) logging started Mon Apr 20 19:58:00 2026


Gurobi 13.0.0 (win64) logging started Mon Apr 20 19:58:07 2026


Gurobi 13.0.0 (win64) logging started Mon Apr 20 19:58:32 2026


Gurobi 13.0.0 (win64) logging started Mon Apr 20 19:58:38 2026


Gurobi 13.0.0 (win64) logging started Mon Apr 20 20:05:37 2026


Gurobi 13.0.0 (win64) logging started Mon Apr 20 20:05:43 2026


Gurobi 13.0.0 (win64) logging started Mon Apr 20 20:06:03 2026


Gurobi 13.0.0 (win64) logging started Mon Apr 20 20:06:09 2026


Gurobi 13.0.0 (win64) logging started Mon Apr 20 20:14:15 2026


Gurobi 13.0.0 (win64) logging started Mon Apr 20 20:14:25 2026

